
--- Job trnsportallcplex.gms Start 12/04/21 04:21:51 37.1.0 r07954d5 WEX-WEI x86 64bit/MS Windows
--- Applying:
    C:\GAMS\37\gmsprmNT.txt
    C:\Users\Erwin\Documents\GAMS\gamsconfig.yaml
--- GAMS Parameters defined
    Input D:\projects\OptimizationModels\EnumerateOptimalLPSolutions\trnsportallcplex.gms
    PageWidth 130
    PageSize 0
    PageContr 3
    Action CE
    ScrDir D:\projects\OptimizationModels\EnumerateOptimalLPSolutions\225a\
    SysDir C:\GAMS\37\
    WorkDir D:\projects\OptimizationModels\EnumerateOptimalLPSolutions\
    LogOption 3
    DFormat 0
    TFormat 0
    ErrorLog 99
    IDE 1
Licensee: Eval License                                   S201210/0001CO-GEN
          Amsterdam Optimization Modeling Group,                     DCE378
          C:\Users\Erwin\Documents\GAMS\gamslice.txt
          Evaluation license: Not for commercial or production use
Processor information: 1 socket(s), 4 core(s), and 8 thread(s) available
GAMS 37.1.0   Copyright (C) 1987-2021 GAMS Development. All rights reserved
--- Starting compilation
--- trnsportallcplex.gms(84) 3 Mb
--- $echo File D:\projects\OptimizationModels\EnumerateOptimalLPSolutions\cplex.opt
--- trnsportallcplex.gms(122) 3 Mb
--- Starting execution: elapsed 0:00:00.088
--- trnsportallcplex.gms(92) 4 Mb
--- Generating MIP model transport
--- trnsportallcplex.gms(93) 4 Mb
---   18 rows  23 columns  57 non-zeroes
---   11 discrete-columns
--- Executing CPLEX (Solvelink=2): elapsed 0:00:00.179

IBM ILOG CPLEX   37.1.0 r07954d5 Released Nov 11, 2021 WEI x86 64bit/MS Window

--- GAMS/Cplex Link licensed for continuous and discrete problems.

Reading parameter(s) from "D:\projects\OptimizationModels\EnumerateOptimalLPSolutions\cplex.opt"
>>  SolnPoolAGap = 0.0
>>  SolnPoolIntensity = 4
>>  PopulateLim = 10000
>>  SolnPoolPop = 2
>>  solnpoolmerge solutions.gdx
Finished reading from "D:\projects\OptimizationModels\EnumerateOptimalLPSolutions\cplex.opt"

--- GMO setup time: 0.00s
--- GMO memory 0.50 Mb (peak 0.50 Mb)
--- Dictionary memory 0.00 Mb
--- Cplex 20.1.0.1 link memory 0.00 Mb (peak 0.00 Mb)
--- Starting Cplex

Version identifier: 20.1.0.1 | 2021-04-07 | 3a818710c
CPXPARAM_Advance                                 0
CPXPARAM_Simplex_Display                         2
CPXPARAM_Threads                                 1
CPXPARAM_MIP_Display                             4
CPXPARAM_MIP_Pool_Intensity                      4
CPXPARAM_MIP_Limits_Populate                     10000
CPXPARAM_MIP_Tolerances_AbsMIPGap                0
CPXPARAM_MIP_Tolerances_MIPGap                   0
CPXPARAM_MIP_Pool_AbsGap                         0
Generic callback                                 0x50

Populate: phase I 
Tried aggregator 2 times.
MIP Presolve eliminated 0 rows and 1 columns.
Aggregator did 3 substitutions.
Reduced MIP has 14 rows, 19 columns, and 47 nonzeros.
Reduced MIP has 11 binaries, 0 generals, 0 SOSs, and 0 indicators.
Presolve time = 0.02 sec. (0.03 ticks)
Found incumbent of value 166.275000 after 0.02 sec. (0.06 ticks)
Probing time = 0.00 sec. (0.01 ticks)
Cover probing fixed 0 vars, tightened 4 bounds.
Tried aggregator 1 time.
MIP Presolve modified 4 coefficients.
Reduced MIP has 14 rows, 19 columns, and 47 nonzeros.
Reduced MIP has 11 binaries, 0 generals, 0 SOSs, and 0 indicators.
Presolve time = 0.00 sec. (0.02 ticks)
Probing time = 0.00 sec. (0.01 ticks)
Clique table members: 6.
MIP emphasis: balance optimality and feasibility.
MIP search method: dynamic search.
Parallel mode: none, using 1 thread.
Tried aggregator 1 time.
No LP presolve or aggregator reductions.
Presolve time = 0.05 sec. (0.01 ticks)
Initializing dual steep norms . . .

Iteration      Dual Objective            In Variable           Out Variable
     1             153.675000 beta(san-diego,topeka)basisx(san-diego, slack
     2             153.675000      beta('-',seattle)  basiss(seattle) slack
     3             153.675000  beta(seattle,chicago)beta(san-diego,chicago)
     4             153.675000 beta(seattle,new-york)basisx(seattle,ch slack
Root relaxation solution time = 0.05 sec. (0.02 ticks)

        Nodes                                         Cuts/
   Node  Left     Objective  IInf  Best Integer    Best Bound    ItCnt     Gap

*     0+    0                          166.2750      153.6750             7.58%
Found incumbent of value 166.275000 after 0.06 sec. (0.14 ticks)
      0     0      153.6750     2      166.2750      153.6750        4    7.58%
*     0+    0                          153.6750      153.6750             0.00%
Found incumbent of value 153.675000 after 0.06 sec. (0.15 ticks)

Root node processing (before b&c):
  Real time             =    0.14 sec. (0.15 ticks)
Sequential b&c:
  Real time             =    0.00 sec. (0.00 ticks)
                          ------------
Total (root+branch&cut) =    0.14 sec. (0.15 ticks)

Populate: phase II 
MIP emphasis: balance optimality and feasibility.
MIP search method: dynamic search.
Parallel mode: none, using 1 thread.

        Nodes                                         Cuts/
   Node  Left     Objective  IInf  Best Integer    Best Bound    ItCnt     Gap

      0     2      153.6750     2      153.6750      153.6750        4    0.00%
Elapsed time = 0.14 sec. (0.26 ticks, tree = 0.01 MB, solutions = 1)

Root node processing (before b&c):
  Real time             =    0.00 sec. (0.12 ticks)
Sequential b&c:
  Real time             =    0.03 sec. (0.26 ticks)
                          ------------
Total (root+branch&cut) =    0.03 sec. (0.38 ticks)

--- MIP status (130): all reachable solutions enumerated, pool tolerance.
--- Cplex Time: 0.25sec (det. 0.53 ticks)

--- Dumping 8 solutions from the solution pool...
--- Fixing integer variables and solving final LP...

Version identifier: 20.1.0.1 | 2021-04-07 | 3a818710c
CPXPARAM_Advance                                 2
CPXPARAM_Simplex_Display                         2
CPXPARAM_Threads                                 1
CPXPARAM_MIP_Display                             4
CPXPARAM_MIP_Pool_Intensity                      4
CPXPARAM_MIP_Limits_Populate                     10000
CPXPARAM_MIP_Tolerances_AbsMIPGap                0
CPXPARAM_MIP_Tolerances_MIPGap                   0
CPXPARAM_MIP_Pool_AbsGap                         0
Tried aggregator 1 time.
LP Presolve eliminated 17 rows and 23 columns.
All rows and columns eliminated.
Presolve time = 0.00 sec. (0.01 ticks)

--- Fixed MIP status (1): optimal.
--- Cplex Time: 0.00sec (det. 0.02 ticks)


Populate has completed the enumeration of solutions within tolerance
MIP Solution:          153.675000    (46 iterations, 34 nodes)
Final Solve:           153.675000    (0 iterations)

Best possible:         155.475000
Absolute gap:           -1.800000
Relative gap:           -0.011577

--- Reading solution for model transport
--- Executing after solve: elapsed 0:00:00.886
--- trnsportallcplex.gms(107) 4 Mb
--- GDXin=D:\projects\OptimizationModels\EnumerateOptimalLPSolutions\solutions.gdx
--- GDX File (execute_load) D:\projects\OptimizationModels\EnumerateOptimalLPSolutions\solutions.gdx
--- trnsportallcplex.gms(122) 4 Mb
*** Status: Normal completion
--- Job trnsportallcplex.gms Stop 12/04/21 04:21:52 elapsed 0:00:00.894
